# Log file name
log             [LOG_FILE]

# Temperature
variable        T equal [TSTART]

# Random seed
variable        s equal [SEED]

units           metal
atom_style      atomic

# fcc lattice
lattice         fcc 3.56
region          box block 0 5 0 5 0 5
create_box      1 box
create_atoms    1 box

# potential
include         [POTENTIAL_FILE]
  
neigh_modify    delay 0 check yes

# Time step
timestep        0.001

# Set velocities
velocity        all create $T $s dist gaussian
velocity        all zero linear

# Thermostat & barostat
fix             thermostat all temp/csvr $T $T $(100.0*dt) $s
fix             barostat all press/berendsen iso [PSET] [PSET] [PDAMP]
fix             integrate all nve

# Equilibrate for 10 ps
variable        t equal time
variable        p equal press
fix             writepressure all print 100 "$t $p" &
                    file [PRESSURE_FILE] screen no
run             10000

# Write data file
write_data      [DATA_FILE]