pair_style      eam/alloy
pair_coeff      * * examples/Ni_EAM_solid/input/NiAl.eam.alloy Ni
