# Log file name
log             [LOG_FILE]

# Temperature
variable        T equal [TSTART]

# Random seed
variable        s equal [SEED]

units           metal
atom_style      atomic

# Read in data file
read_data       [DATA_FILE]

# potential
include         [POTENTIAL_FILE]
  
neigh_modify    delay 0 check yes

# Time step
timestep        0.001

# Thermostat & barostat
fix             thermostat all temp/csvr $T $T $(100.0*dt) $s
fix             barostat all press/berendsen iso [PSET] [PSET] [PDAMP]
fix             integrate all nve

# Equilibrate for 3 ps
variable        t equal time
variable        p equal press
fix             writepressure all print 10 "$t $p" &
                    file [PRESSURE_FILE] screen no
run             $([SIM_TIME]/dt)